p edge 50 245
e 1 9
e 1 13
e 1 19
e 1 25
e 1 26
e 1 34
e 2 6
e 2 14
e 2 26
e 2 29
e 2 30
e 2 36
e 2 42
e 3 7
e 3 9
e 3 22
e 3 24
e 3 28
e 3 31
e 3 42
e 3 44
e 4 9
e 4 10
e 4 16
e 4 23
e 4 26
e 4 29
e 4 31
e 4 33
e 4 38
e 4 39
e 4 45
e 4 46
e 4 48
e 4 50
e 5 6
e 5 8
e 5 18
e 5 19
e 5 24
e 5 26
e 5 27
e 5 36
e 5 39
e 5 48
e 6 8
e 6 11
e 6 13
e 6 18
e 6 20
e 6 27
e 6 42
e 6 43
e 6 48
e 6 49
e 7 12
e 7 16
e 7 18
e 7 20
e 7 24
e 7 27
e 7 28
e 7 50
e 8 10
e 8 19
e 8 24
e 8 46
e 9 10
e 9 14
e 9 15
e 9 20
e 9 21
e 9 26
e 9 44
e 9 46
e 9 48
e 10 21
e 10 28
e 10 30
e 10 41
e 10 44
e 10 45
e 10 47
e 11 13
e 11 17
e 11 21
e 11 32
e 11 34
e 11 41
e 12 19
e 12 23
e 12 24
e 12 26
e 12 28
e 12 37
e 12 48
e 13 21
e 13 22
e 13 25
e 13 26
e 13 32
e 13 35
e 13 36
e 13 37
e 13 44
e 14 16
e 14 29
e 14 34
e 14 39
e 15 28
e 15 37
e 15 38
e 15 42
e 15 49
e 16 21
e 16 22
e 16 25
e 16 27
e 16 36
e 16 41
e 16 43
e 16 47
e 17 20
e 17 27
e 17 28
e 17 34
e 17 35
e 17 37
e 17 42
e 17 43
e 17 46
e 17 48
e 17 50
e 18 19
e 18 21
e 18 22
e 18 27
e 18 31
e 18 33
e 18 35
e 18 50
e 19 20
e 19 26
e 19 29
e 19 30
e 19 33
e 19 34
e 19 35
e 19 41
e 19 46
e 20 21
e 20 27
e 20 30
e 20 37
e 20 42
e 20 44
e 20 50
e 21 27
e 21 29
e 21 35
e 21 36
e 22 23
e 22 25
e 22 30
e 22 36
e 22 37
e 22 39
e 22 40
e 22 44
e 22 47
e 23 32
e 23 36
e 23 44
e 23 48
e 24 27
e 24 37
e 24 45
e 24 47
e 24 48
e 24 49
e 25 30
e 25 35
e 25 36
e 25 43
e 25 44
e 25 47
e 25 50
e 26 31
e 26 37
e 26 40
e 26 46
e 28 29
e 28 31
e 29 34
e 29 39
e 29 43
e 29 49
e 29 50
e 30 34
e 30 37
e 30 44
e 30 46
e 31 45
e 31 46
e 31 48
e 31 50
e 32 46
e 32 47
e 33 45
e 33 46
e 33 49
e 34 38
e 34 40
e 34 44
e 34 47
e 34 49
e 35 40
e 35 47
e 36 37
e 36 38
e 36 39
e 36 42
e 36 43
e 36 47
e 37 38
e 37 40
e 37 42
e 37 48
e 37 50
e 38 39
e 38 48
e 39 41
e 39 42
e 39 44
e 39 49
e 39 50
e 40 41
e 40 42
e 40 48
e 40 49
e 42 47
e 42 50
e 43 47
e 43 48
e 44 47
